44
100
70	3
69	5
68	3
67	1
64	3
63	2
62	2
61	2
60	2
59	1
58	2
57	2
56	3
55	2
53	2
52	3
51	1
50	2
49	4
48	3
47	2
46	2
45	2
44	1
43	1
42	3
40	2
39	4
38	1
37	1
35	3
34	4
33	2
32	1
31	1
30	4
29	1
27	3
26	4
25	2
24	1
23	3
22	1
21	3
